db/inputs/59302676417326301062847209342115011419.smt2
(set-logic QF_FP)
(declare-const x0 (_ FloatingPoint 8 24))
(declare-const x1 (_ FloatingPoint 8 24))
(declare-const x2 (_ FloatingPoint 8 24))
(declare-const x3 (_ FloatingPoint 8 24))
(declare-const x4 (_ FloatingPoint 8 24))
(declare-const x5 (_ FloatingPoint 8 24))
(declare-const x6 (_ FloatingPoint 8 24))
(declare-const x7 (_ FloatingPoint 8 24))
(assert (fp.leq (fp.mul RNE (fp.neg x3) (fp.add RNE x0 x7)) (fp.mul RNE (fp.neg x3) (fp.mul RNE x3 x1))))
(assert (fp.lt (fp.sub RNE (fp.sub RNE x3 x7) (fp.add RNE x5 x4)) (fp.mul RNE (fp.neg x1) (fp.sub RNE x2 x6))))
(assert (fp.eq (fp.mul RNE (fp.add RNE x0 x5) (fp.neg x5)) (fp.mul RNE (fp.add RNE x7 x0) (fp.div RNE x2 x6))))
(check-sat)
