db/data/59302676417326301062847209342115011419.z3.out
sat
-------------------
8.960923936
